




Route 1 : 91 67 65 84 66 83 100 53 58 87 75 25 23 21 50 20 19 49 22 24 26 78 59 76 98 60 88 10 11 12 14 16 17 18 48 15 13 54 99 70
Route 2 : 82 55 73 40 39 38 36 37 41 44 45 43 42 62 71 101 3 2 4 6 46 5 47 9 7 8 80 74 79 61 89 56 69
Route 3 : 97 72 94 95 68 63 51 35 32 30 28 27 29 31 33 34 90 77 52 64 86 85 57 96 93 92 81


